c 0.004021406173706055 (encode time in sec)
p cnf 152 280
1 2 3 7 0
1 2 -3 5 0
1 -2 3 4 0
1 -2 -3 6 0
-1 2 3 8 0
-1 2 -3 0
-1 -2 3 0
-1 -2 -3 0
9 10 11 15 0
9 10 -11 12 0
9 -10 11 14 0
9 -10 -11 13 0
-9 10 11 16 0
-9 10 -11 0
-9 -10 11 0
-9 -10 -11 0
17 18 19 20 0
17 18 -19 24 0
17 -18 19 23 0
17 -18 -19 22 0
-17 18 19 21 0
-17 18 -19 0
-17 -18 19 0
-17 -18 -19 0
25 26 27 1 2 3 9 10 11 28 0
25 26 27 1 2 3 9 10 -11 29 0
25 26 27 1 2 3 9 -10 11 69 0
25 26 27 1 2 3 9 -10 -11 31 0
25 26 27 1 2 3 -9 10 11 30 0
25 26 27 1 2 -3 9 10 11 32 0
25 26 27 1 2 -3 9 10 -11 33 0
25 26 27 1 2 -3 9 -10 11 46 0
25 26 27 1 2 -3 9 -10 -11 34 0
25 26 27 1 2 -3 -9 10 11 35 0
25 26 27 1 -2 3 9 10 11 36 0
25 26 27 1 -2 3 9 10 -11 65 0
25 26 27 1 -2 3 9 -10 11 50 0
25 26 27 1 -2 3 9 -10 -11 37 0
25 26 27 1 -2 3 -9 10 11 51 0
25 26 27 1 -2 -3 9 10 11 45 0
25 26 27 1 -2 -3 9 10 -11 87 0
25 26 27 1 -2 -3 9 -10 11 68 0
25 26 27 1 -2 -3 9 -10 -11 38 0
25 26 27 1 -2 -3 -9 10 11 70 0
25 26 27 -1 2 3 9 10 11 71 0
25 26 27 -1 2 3 9 10 -11 72 0
25 26 27 -1 2 3 9 -10 11 81 0
25 26 27 -1 2 3 9 -10 -11 73 0
25 26 27 -1 2 3 -9 10 11 56 0
25 26 -27 1 2 3 9 10 11 35 0
25 26 -27 1 2 3 9 10 -11 61 0
25 26 -27 1 2 3 9 -10 11 78 0
25 26 -27 1 2 3 9 -10 -11 67 0
25 26 -27 1 2 3 -9 10 11 30 0
25 26 -27 1 2 -3 9 10 11 62 0
25 26 -27 1 2 -3 9 10 -11 63 0
25 26 -27 1 2 -3 9 -10 11 79 0
25 26 -27 1 2 -3 9 -10 -11 39 0
25 26 -27 1 2 -3 -9 10 11 35 0
25 26 -27 1 -2 3 9 10 11 74 0
25 26 -27 1 -2 3 9 10 -11 90 0
25 26 -27 1 -2 3 9 -10 11 52 0
25 26 -27 1 -2 3 9 -10 -11 37 0
25 26 -27 1 -2 3 -9 10 11 51 0
25 26 -27 1 -2 -3 9 10 11 48 0
25 26 -27 1 -2 -3 9 10 -11 53 0
25 26 -27 1 -2 -3 9 -10 11 68 0
25 26 -27 1 -2 -3 9 -10 -11 38 0
25 26 -27 1 -2 -3 -9 10 11 70 0
25 26 -27 -1 2 3 9 10 11 82 0
25 26 -27 -1 2 3 9 10 -11 72 0
25 26 -27 -1 2 3 9 -10 11 81 0
25 26 -27 -1 2 3 9 -10 -11 73 0
25 26 -27 -1 2 3 -9 10 11 56 0
25 -26 27 1 2 3 9 10 11 35 0
25 -26 27 1 2 3 9 10 -11 75 0
25 -26 27 1 2 3 9 -10 11 76 0
25 -26 27 1 2 3 9 -10 -11 91 0
25 -26 27 1 2 3 -9 10 11 30 0
25 -26 27 1 2 -3 9 10 11 40 0
25 -26 27 1 2 -3 9 10 -11 58 0
25 -26 27 1 2 -3 9 -10 11 59 0
25 -26 27 1 2 -3 9 -10 -11 77 0
25 -26 27 1 2 -3 -9 10 11 35 0
25 -26 27 1 -2 3 9 10 11 86 0
25 -26 27 1 -2 3 9 10 -11 54 0
25 -26 27 1 -2 3 9 -10 11 43 0
25 -26 27 1 -2 3 9 -10 -11 41 0
25 -26 27 1 -2 3 -9 10 11 51 0
25 -26 27 1 -2 -3 9 10 11 60 0
25 -26 27 1 -2 -3 9 10 -11 49 0
25 -26 27 1 -2 -3 9 -10 11 92 0
25 -26 27 1 -2 -3 9 -10 -11 38 0
25 -26 27 1 -2 -3 -9 10 11 70 0
25 -26 27 -1 2 3 9 10 11 71 0
25 -26 27 -1 2 3 9 10 -11 88 0
25 -26 27 -1 2 3 9 -10 11 47 0
25 -26 27 -1 2 3 9 -10 -11 73 0
25 -26 27 -1 2 3 -9 10 11 56 0
25 -26 -27 1 2 3 9 10 11 35 0
25 -26 -27 1 2 3 9 10 -11 75 0
25 -26 -27 1 2 3 9 -10 11 69 0
25 -26 -27 1 2 3 9 -10 -11 31 0
25 -26 -27 1 2 3 -9 10 11 30 0
25 -26 -27 1 2 -3 9 10 11 40 0
25 -26 -27 1 2 -3 9 10 -11 58 0
25 -26 -27 1 2 -3 9 -10 11 46 0
25 -26 -27 1 2 -3 9 -10 -11 64 0
25 -26 -27 1 2 -3 -9 10 11 28 0
25 -26 -27 1 -2 3 9 10 11 86 0
25 -26 -27 1 -2 3 9 10 -11 65 0
25 -26 -27 1 -2 3 9 -10 11 85 0
25 -26 -27 1 -2 3 9 -10 -11 44 0
25 -26 -27 1 -2 3 -9 10 11 83 0
25 -26 -27 1 -2 -3 9 10 11 45 0
25 -26 -27 1 -2 -3 9 10 -11 89 0
25 -26 -27 1 -2 -3 9 -10 11 80 0
25 -26 -27 1 -2 -3 9 -10 -11 66 0
25 -26 -27 1 -2 -3 -9 10 11 42 0
25 -26 -27 -1 2 3 9 10 11 71 0
25 -26 -27 -1 2 3 9 10 -11 84 0
25 -26 -27 -1 2 3 9 -10 11 32 0
25 -26 -27 -1 2 3 9 -10 -11 30 0
25 -26 -27 -1 2 3 -9 10 11 56 0
-25 26 27 1 2 3 9 10 11 35 0
-25 26 27 1 2 3 9 10 -11 75 0
-25 26 27 1 2 3 9 -10 11 69 0
-25 26 27 1 2 3 9 -10 -11 31 0
-25 26 27 1 2 3 -9 10 11 30 0
-25 26 27 1 2 -3 9 10 11 40 0
-25 26 27 1 2 -3 9 10 -11 58 0
-25 26 27 1 2 -3 9 -10 11 46 0
-25 26 27 1 2 -3 9 -10 -11 34 0
-25 26 27 1 2 -3 -9 10 11 35 0
-25 26 27 1 -2 3 9 10 11 86 0
-25 26 27 1 -2 3 9 10 -11 65 0
-25 26 27 1 -2 3 9 -10 11 50 0
-25 26 27 1 -2 3 9 -10 -11 37 0
-25 26 27 1 -2 3 -9 10 11 71 0
-25 26 27 1 -2 -3 9 10 11 45 0
-25 26 27 1 -2 -3 9 10 -11 87 0
-25 26 27 1 -2 -3 9 -10 11 68 0
-25 26 27 1 -2 -3 9 -10 -11 55 0
-25 26 27 1 -2 -3 -9 10 11 57 0
-25 26 27 -1 2 3 9 10 11 71 0
-25 26 27 -1 2 3 9 10 -11 72 0
-25 26 27 -1 2 3 9 -10 11 81 0
-25 26 27 -1 2 3 9 -10 -11 28 0
-25 26 27 -1 2 3 -9 10 11 88 0
-25 26 -27 0
-25 -26 27 0
-25 -26 -27 0
93 94 95 17 18 19 25 26 27 96 0
93 94 95 17 18 19 25 26 -27 130 0
93 94 95 17 18 19 25 -26 27 97 0
93 94 95 17 18 19 25 -26 -27 129 0
93 94 95 17 18 19 -25 26 27 128 0
93 94 95 17 18 -19 25 26 27 98 0
93 94 95 17 18 -19 25 26 -27 114 0
93 94 95 17 18 -19 25 -26 27 99 0
93 94 95 17 18 -19 25 -26 -27 124 0
93 94 95 17 18 -19 -25 26 27 100 0
93 94 95 17 -18 19 25 26 27 101 0
93 94 95 17 -18 19 25 26 -27 115 0
93 94 95 17 -18 19 25 -26 27 107 0
93 94 95 17 -18 19 25 -26 -27 116 0
93 94 95 17 -18 19 -25 26 27 129 0
93 94 95 17 -18 -19 25 26 27 103 0
93 94 95 17 -18 -19 25 26 -27 143 0
93 94 95 17 -18 -19 25 -26 27 123 0
93 94 95 17 -18 -19 25 -26 -27 147 0
93 94 95 17 -18 -19 -25 26 27 129 0
93 94 95 -17 18 19 25 26 27 128 0
93 94 95 -17 18 19 25 26 -27 102 0
93 94 95 -17 18 19 25 -26 27 119 0
93 94 95 -17 18 19 25 -26 -27 104 0
93 94 95 -17 18 19 -25 26 27 105 0
93 94 -95 17 18 19 25 26 27 104 0
93 94 -95 17 18 19 25 26 -27 120 0
93 94 -95 17 18 19 25 -26 27 127 0
93 94 -95 17 18 19 25 -26 -27 129 0
93 94 -95 17 18 19 -25 26 27 128 0
93 94 -95 17 18 -19 25 26 27 131 0
93 94 -95 17 18 -19 25 26 -27 148 0
93 94 -95 17 18 -19 25 -26 27 136 0
93 94 -95 17 18 -19 25 -26 -27 124 0
93 94 -95 17 18 -19 -25 26 27 100 0
93 94 -95 17 -18 19 25 26 27 132 0
93 94 -95 17 -18 19 25 26 -27 112 0
93 94 -95 17 -18 19 25 -26 27 133 0
93 94 -95 17 -18 19 25 -26 -27 116 0
93 94 -95 17 -18 19 -25 26 27 129 0
93 94 -95 17 -18 -19 25 26 27 141 0
93 94 -95 17 -18 -19 25 26 -27 134 0
93 94 -95 17 -18 -19 25 -26 27 123 0
93 94 -95 17 -18 -19 25 -26 -27 147 0
93 94 -95 17 -18 -19 -25 26 27 129 0
93 94 -95 -17 18 19 25 26 27 141 0
93 94 -95 -17 18 19 25 26 -27 106 0
93 94 -95 -17 18 19 25 -26 27 119 0
93 94 -95 -17 18 19 25 -26 -27 104 0
93 94 -95 -17 18 19 -25 26 27 105 0
93 -94 95 17 18 19 25 26 27 104 0
93 -94 95 17 18 19 25 26 -27 117 0
93 -94 95 17 18 19 25 -26 27 118 0
93 -94 95 17 18 19 25 -26 -27 144 0
93 -94 95 17 18 19 -25 26 27 128 0
93 -94 95 17 18 -19 25 26 27 131 0
93 -94 95 17 18 -19 25 26 -27 145 0
93 -94 95 17 18 -19 25 -26 27 142 0
93 -94 95 17 18 -19 25 -26 -27 125 0
93 -94 95 17 18 -19 -25 26 27 100 0
93 -94 95 17 -18 19 25 26 27 137 0
93 -94 95 17 -18 19 25 26 -27 146 0
93 -94 95 17 -18 19 25 -26 27 121 0
93 -94 95 17 -18 19 25 -26 -27 149 0
93 -94 95 17 -18 19 -25 26 27 129 0
93 -94 95 17 -18 -19 25 26 27 114 0
93 -94 95 17 -18 -19 25 26 -27 113 0
93 -94 95 17 -18 -19 25 -26 27 152 0
93 -94 95 17 -18 -19 25 -26 -27 138 0
93 -94 95 17 -18 -19 -25 26 27 129 0
93 -94 95 -17 18 19 25 26 27 128 0
93 -94 95 -17 18 19 25 26 -27 96 0
93 -94 95 -17 18 19 25 -26 27 110 0
93 -94 95 -17 18 19 25 -26 -27 104 0
93 -94 95 -17 18 19 -25 26 27 105 0
93 -94 -95 17 18 19 25 26 27 104 0
93 -94 -95 17 18 19 25 26 -27 117 0
93 -94 -95 17 18 19 25 -26 27 97 0
93 -94 -95 17 18 19 25 -26 -27 139 0
93 -94 -95 17 18 19 -25 26 27 141 0
93 -94 -95 17 18 -19 25 26 27 131 0
93 -94 -95 17 18 -19 25 26 -27 145 0
93 -94 -95 17 18 -19 25 -26 27 99 0
93 -94 -95 17 18 -19 25 -26 -27 108 0
93 -94 -95 17 18 -19 -25 26 27 135 0
93 -94 -95 17 -18 19 25 26 27 137 0
93 -94 -95 17 -18 19 25 26 -27 109 0
93 -94 -95 17 -18 19 25 -26 27 111 0
93 -94 -95 17 -18 19 25 -26 -27 140 0
93 -94 -95 17 -18 19 -25 26 27 139 0
93 -94 -95 17 -18 -19 25 26 27 114 0
93 -94 -95 17 -18 -19 25 26 -27 143 0
93 -94 -95 17 -18 -19 25 -26 27 151 0
93 -94 -95 17 -18 -19 25 -26 -27 122 0
93 -94 -95 17 -18 -19 -25 26 27 129 0
93 -94 -95 -17 18 19 25 26 27 128 0
93 -94 -95 -17 18 19 25 26 -27 102 0
93 -94 -95 -17 18 19 25 -26 27 126 0
93 -94 -95 -17 18 19 25 -26 -27 96 0
93 -94 -95 -17 18 19 -25 26 27 105 0
-93 94 95 17 18 19 25 26 27 104 0
-93 94 95 17 18 19 25 26 -27 117 0
-93 94 95 17 18 19 25 -26 27 97 0
-93 94 95 17 18 19 25 -26 -27 129 0
-93 94 95 17 18 19 -25 26 27 128 0
-93 94 95 17 18 -19 25 26 27 131 0
-93 94 95 17 18 -19 25 26 -27 145 0
-93 94 95 17 18 -19 25 -26 27 99 0
-93 94 95 17 18 -19 25 -26 -27 124 0
-93 94 95 17 18 -19 -25 26 27 135 0
-93 94 95 17 -18 19 25 26 27 137 0
-93 94 95 17 -18 19 25 26 -27 109 0
-93 94 95 17 -18 19 25 -26 27 107 0
-93 94 95 17 -18 19 25 -26 -27 116 0
-93 94 95 17 -18 19 -25 26 27 144 0
-93 94 95 17 -18 -19 25 26 27 114 0
-93 94 95 17 -18 -19 25 26 -27 143 0
-93 94 95 17 -18 -19 25 -26 27 123 0
-93 94 95 17 -18 -19 25 -26 -27 147 0
-93 94 95 17 -18 -19 -25 26 27 150 0
-93 94 95 -17 18 19 25 26 27 128 0
-93 94 95 -17 18 19 25 26 -27 102 0
-93 94 95 -17 18 19 25 -26 27 119 0
-93 94 95 -17 18 19 25 -26 -27 104 0
-93 94 95 -17 18 19 -25 26 27 105 0
-93 94 -95 0
-93 -94 95 0
-93 -94 -95 0
